(set-logic ALL)
(declare-const n_VAR Int)
(assert (not (not (= n_VAR n_VAR))))
(assert (not (< n_VAR 0)))
(assert (< 1 (+ n_VAR 1)))
(assert (< 2 (+ n_VAR 1)))
(assert (< 3 (+ n_VAR 1)))
(assert (< 4 (+ n_VAR 1)))
(assert (< 5 (+ n_VAR 1)))
(assert (< 6 (+ n_VAR 1)))
(assert (< 7 (+ n_VAR 1)))
(assert (< 8 (+ n_VAR 1)))
(assert (< 9 (+ n_VAR 1)))
(assert (< 10 (+ n_VAR 1)))
(assert (< 11 (+ n_VAR 1)))
(assert (< 12 (+ n_VAR 1)))
(assert (< 13 (+ n_VAR 1)))
(assert (< 14 (+ n_VAR 1)))
(assert (< 15 (+ n_VAR 1)))
(assert (< 16 (+ n_VAR 1)))
(assert (< 17 (+ n_VAR 1)))
(assert (< 18 (+ n_VAR 1)))
(assert (< 19 (+ n_VAR 1)))
(assert (< 20 (+ n_VAR 1)))
(assert (< 21 (+ n_VAR 1)))
(assert (< 22 (+ n_VAR 1)))
(assert (< 23 (+ n_VAR 1)))
(assert (< 24 (+ n_VAR 1)))
(assert (< 25 (+ n_VAR 1)))
(assert (< 26 (+ n_VAR 1)))
(assert (< 27 (+ n_VAR 1)))
(assert (< 28 (+ n_VAR 1)))
(assert (< 29 (+ n_VAR 1)))
(assert (< 30 (+ n_VAR 1)))
(assert (< 31 (+ n_VAR 1)))
(assert (< 32 (+ n_VAR 1)))
(assert (< 33 (+ n_VAR 1)))
(assert (< 34 (+ n_VAR 1)))
(assert (< 35 (+ n_VAR 1)))
(assert (< 36 (+ n_VAR 1)))
(assert (< 37 (+ n_VAR 1)))
(assert (< 38 (+ n_VAR 1)))
(assert (< 39 (+ n_VAR 1)))
(assert (< 40 (+ n_VAR 1)))
(assert (< 41 (+ n_VAR 1)))
(assert (< 42 (+ n_VAR 1)))
(assert (< 43 (+ n_VAR 1)))
(assert (< 44 (+ n_VAR 1)))
(assert (< 45 (+ n_VAR 1)))
(assert (< 46 (+ n_VAR 1)))
(assert (< 47 (+ n_VAR 1)))
(assert (< 48 (+ n_VAR 1)))
(assert (< 49 (+ n_VAR 1)))
(assert (< 50 (+ n_VAR 1)))
(assert (< 51 (+ n_VAR 1)))
(assert (< 52 (+ n_VAR 1)))
(assert (< 53 (+ n_VAR 1)))
(assert (< 54 (+ n_VAR 1)))
(assert (< 55 (+ n_VAR 1)))
(assert (< 56 (+ n_VAR 1)))
(assert (< 57 (+ n_VAR 1)))
(assert (< 58 (+ n_VAR 1)))
(assert (< 59 (+ n_VAR 1)))
(assert (< 60 (+ n_VAR 1)))
(assert (< 61 (+ n_VAR 1)))
(assert (< 62 (+ n_VAR 1)))
(assert (< 63 (+ n_VAR 1)))
(assert (< 64 (+ n_VAR 1)))
(assert (< 65 (+ n_VAR 1)))
(assert (< 66 (+ n_VAR 1)))
(assert (< 67 (+ n_VAR 1)))
(assert (< 68 (+ n_VAR 1)))
(assert (< 69 (+ n_VAR 1)))
(assert (< 70 (+ n_VAR 1)))
(assert (< 71 (+ n_VAR 1)))
(assert (< 72 (+ n_VAR 1)))
(assert (< 73 (+ n_VAR 1)))
(assert (< 74 (+ n_VAR 1)))
(assert (< 75 (+ n_VAR 1)))
(assert (< 76 (+ n_VAR 1)))
(assert (< 77 (+ n_VAR 1)))
(assert (< 78 (+ n_VAR 1)))
(assert (< 79 (+ n_VAR 1)))
(assert (< 80 (+ n_VAR 1)))
(assert (< 81 (+ n_VAR 1)))
(assert (< 82 (+ n_VAR 1)))
(assert (< 83 (+ n_VAR 1)))
(assert (< 84 (+ n_VAR 1)))
(assert (< 85 (+ n_VAR 1)))
(assert (< 86 (+ n_VAR 1)))
(assert (< 87 (+ n_VAR 1)))
(assert (< 88 (+ n_VAR 1)))
(assert (< 89 (+ n_VAR 1)))
(assert (< 90 (+ n_VAR 1)))
(assert (< 91 (+ n_VAR 1)))
(assert (< 92 (+ n_VAR 1)))
(assert (< 93 (+ n_VAR 1)))
(assert (< 94 (+ n_VAR 1)))
(assert (< 95 (+ n_VAR 1)))
(assert (< 96 (+ n_VAR 1)))
(assert (< 97 (+ n_VAR 1)))
(assert (< 98 (+ n_VAR 1)))
(assert (< 99 (+ n_VAR 1)))
(assert (< 100 (+ n_VAR 1)))
(assert (< 101 (+ n_VAR 1)))
(assert (< 102 (+ n_VAR 1)))
(assert (< 103 (+ n_VAR 1)))
(assert (< 104 (+ n_VAR 1)))
(assert (< 105 (+ n_VAR 1)))
(assert (< 106 (+ n_VAR 1)))
(assert (< 107 (+ n_VAR 1)))
(assert (< 108 (+ n_VAR 1)))
(assert (< 109 (+ n_VAR 1)))
(assert (< 110 (+ n_VAR 1)))
(assert (< 111 (+ n_VAR 1)))
(assert (< 112 (+ n_VAR 1)))
(assert (< 113 (+ n_VAR 1)))
(assert (< 114 (+ n_VAR 1)))
(assert (< 115 (+ n_VAR 1)))
(assert (< 116 (+ n_VAR 1)))
(assert (< 117 (+ n_VAR 1)))
(assert (< 118 (+ n_VAR 1)))
(assert (< 119 (+ n_VAR 1)))
(assert (< 120 (+ n_VAR 1)))
(assert (< 121 (+ n_VAR 1)))
(assert (< 122 (+ n_VAR 1)))
(assert (< 123 (+ n_VAR 1)))
(assert (< 124 (+ n_VAR 1)))
(assert (< 125 (+ n_VAR 1)))
(assert (< 126 (+ n_VAR 1)))
(assert (< 127 (+ n_VAR 1)))
(assert (< 128 (+ n_VAR 1)))
(assert (< 129 (+ n_VAR 1)))
(assert (< 130 (+ n_VAR 1)))
(assert (< 131 (+ n_VAR 1)))
(assert (< 132 (+ n_VAR 1)))
(assert (< 133 (+ n_VAR 1)))
(assert (< 134 (+ n_VAR 1)))
(assert (< 135 (+ n_VAR 1)))
(assert (< 136 (+ n_VAR 1)))
(assert (< 137 (+ n_VAR 1)))
(assert (< 138 (+ n_VAR 1)))
(assert (< 139 (+ n_VAR 1)))
(assert (< 140 (+ n_VAR 1)))
(assert (< 141 (+ n_VAR 1)))
(assert (< 142 (+ n_VAR 1)))
(assert (< 143 (+ n_VAR 1)))
(assert (< 144 (+ n_VAR 1)))
(assert (< 145 (+ n_VAR 1)))
(assert (< 146 (+ n_VAR 1)))
(assert (< 147 (+ n_VAR 1)))
(assert (< 148 (+ n_VAR 1)))
(assert (< 149 (+ n_VAR 1)))
(assert (< 150 (+ n_VAR 1)))
(assert (< 151 (+ n_VAR 1)))
(assert (< 152 (+ n_VAR 1)))
(assert (< 153 (+ n_VAR 1)))
(assert (< 154 (+ n_VAR 1)))
(assert (< 155 (+ n_VAR 1)))
(assert (< 156 (+ n_VAR 1)))
(assert (< 157 (+ n_VAR 1)))
(assert (< 158 (+ n_VAR 1)))
(assert (< 159 (+ n_VAR 1)))
(assert (< 160 (+ n_VAR 1)))
(assert (< 161 (+ n_VAR 1)))
(assert (< 162 (+ n_VAR 1)))
(assert (< 163 (+ n_VAR 1)))
(assert (< 164 (+ n_VAR 1)))
(assert (< 165 (+ n_VAR 1)))
(assert (< 166 (+ n_VAR 1)))
(assert (< 167 (+ n_VAR 1)))
(assert (< 168 (+ n_VAR 1)))
(assert (< 169 (+ n_VAR 1)))
(assert (< 170 (+ n_VAR 1)))
(assert (< 171 (+ n_VAR 1)))
(assert (< 172 (+ n_VAR 1)))
(assert (< 173 (+ n_VAR 1)))
(assert (< 174 (+ n_VAR 1)))
(assert (< 175 (+ n_VAR 1)))
(assert (< 176 (+ n_VAR 1)))
(assert (< 177 (+ n_VAR 1)))
(assert (< 178 (+ n_VAR 1)))
(assert (< 179 (+ n_VAR 1)))
(assert (< 180 (+ n_VAR 1)))
(assert (< 181 (+ n_VAR 1)))
(assert (< 182 (+ n_VAR 1)))
(assert (< 183 (+ n_VAR 1)))
(assert (< 184 (+ n_VAR 1)))
(assert (< 185 (+ n_VAR 1)))
(assert (< 186 (+ n_VAR 1)))
(assert (< 187 (+ n_VAR 1)))
(assert (< 188 (+ n_VAR 1)))
(assert (< 189 (+ n_VAR 1)))
(assert (< 190 (+ n_VAR 1)))
(assert (< 191 (+ n_VAR 1)))
(assert (< 192 (+ n_VAR 1)))
(assert (< 193 (+ n_VAR 1)))
(assert (< 194 (+ n_VAR 1)))
(assert (< 195 (+ n_VAR 1)))
(assert (< 196 (+ n_VAR 1)))
(assert (< 197 (+ n_VAR 1)))
(assert (< 198 (+ n_VAR 1)))
(assert (< 199 (+ n_VAR 1)))
(assert (< 200 (+ n_VAR 1)))
(assert (< 201 (+ n_VAR 1)))
(assert (< 202 (+ n_VAR 1)))
(assert (< 203 (+ n_VAR 1)))
(assert (< 204 (+ n_VAR 1)))
(assert (< 205 (+ n_VAR 1)))
(assert (< 206 (+ n_VAR 1)))
(assert (< 207 (+ n_VAR 1)))
(assert (< 208 (+ n_VAR 1)))
(assert (< 209 (+ n_VAR 1)))
(assert (< 210 (+ n_VAR 1)))
(assert (< 211 (+ n_VAR 1)))
(assert (< 212 (+ n_VAR 1)))
(assert (< 213 (+ n_VAR 1)))
(assert (< 214 (+ n_VAR 1)))
(assert (< 215 (+ n_VAR 1)))
(assert (< 216 (+ n_VAR 1)))
(assert (< 217 (+ n_VAR 1)))
(assert (< 218 (+ n_VAR 1)))
(assert (< 219 (+ n_VAR 1)))
(assert (< 220 (+ n_VAR 1)))
(assert (< 221 (+ n_VAR 1)))
(assert (< 222 (+ n_VAR 1)))
(assert (< 223 (+ n_VAR 1)))
(assert (< 224 (+ n_VAR 1)))
(assert (< 225 (+ n_VAR 1)))
(assert (< 226 (+ n_VAR 1)))
(assert (< 227 (+ n_VAR 1)))
(assert (< 228 (+ n_VAR 1)))
(assert (< 229 (+ n_VAR 1)))
(assert (< 230 (+ n_VAR 1)))
(assert (< 231 (+ n_VAR 1)))
(assert (< 232 (+ n_VAR 1)))
(assert (< 233 (+ n_VAR 1)))
(assert (< 234 (+ n_VAR 1)))
(assert (< 235 (+ n_VAR 1)))
(assert (< 236 (+ n_VAR 1)))
(assert (< 237 (+ n_VAR 1)))
(assert (< 238 (+ n_VAR 1)))
(assert (< 239 (+ n_VAR 1)))
(assert (< 240 (+ n_VAR 1)))
(assert (< 241 (+ n_VAR 1)))
(assert (< 242 (+ n_VAR 1)))
(assert (< 243 (+ n_VAR 1)))
(assert (< 244 (+ n_VAR 1)))
(assert (< 245 (+ n_VAR 1)))
(assert (< 246 (+ n_VAR 1)))
(assert (< 247 (+ n_VAR 1)))
(assert (< 248 (+ n_VAR 1)))
(assert (< 249 (+ n_VAR 1)))
(assert (< 250 (+ n_VAR 1)))
(assert (< 251 (+ n_VAR 1)))
(assert (< 252 (+ n_VAR 1)))
(assert (< 253 (+ n_VAR 1)))
(assert (< 254 (+ n_VAR 1)))
(assert (< 255 (+ n_VAR 1)))
(assert (< 256 (+ n_VAR 1)))
(assert (< 257 (+ n_VAR 1)))
(assert (< 258 (+ n_VAR 1)))
(assert (< 259 (+ n_VAR 1)))
(assert (< 260 (+ n_VAR 1)))
(assert (< 261 (+ n_VAR 1)))
(assert (< 262 (+ n_VAR 1)))
(assert (< 263 (+ n_VAR 1)))
(assert (< 264 (+ n_VAR 1)))
(assert (< 265 (+ n_VAR 1)))
(assert (< 266 (+ n_VAR 1)))
(assert (< 267 (+ n_VAR 1)))
(assert (< 268 (+ n_VAR 1)))
(assert (< 269 (+ n_VAR 1)))
(assert (< 270 (+ n_VAR 1)))
(assert (< 271 (+ n_VAR 1)))
(assert (< 272 (+ n_VAR 1)))
(assert (< 273 (+ n_VAR 1)))
(assert (< 274 (+ n_VAR 1)))
(assert (< 275 (+ n_VAR 1)))
(assert (< 276 (+ n_VAR 1)))
(assert (< 277 (+ n_VAR 1)))
(assert (< 278 (+ n_VAR 1)))
(assert (< 279 (+ n_VAR 1)))
(assert (< 280 (+ n_VAR 1)))
(assert (< 281 (+ n_VAR 1)))
(assert (< 282 (+ n_VAR 1)))
(assert (< 283 (+ n_VAR 1)))
(assert (< 284 (+ n_VAR 1)))
(assert (< 285 (+ n_VAR 1)))
(assert (< 286 (+ n_VAR 1)))
(assert (< 287 (+ n_VAR 1)))
(assert (< 288 (+ n_VAR 1)))
(assert (< 289 (+ n_VAR 1)))
(assert (< 290 (+ n_VAR 1)))
(assert (< 291 (+ n_VAR 1)))
(assert (< 292 (+ n_VAR 1)))
(assert (< 293 (+ n_VAR 1)))
(assert (< 294 (+ n_VAR 1)))
(assert (< 295 (+ n_VAR 1)))
(assert (< 296 (+ n_VAR 1)))
(assert (< 297 (+ n_VAR 1)))
(assert (< 298 (+ n_VAR 1)))
(assert (< 299 (+ n_VAR 1)))
(assert (< 300 (+ n_VAR 1)))
(assert (< 301 (+ n_VAR 1)))
(assert (< 302 (+ n_VAR 1)))
(assert (< 303 (+ n_VAR 1)))
(assert (< 304 (+ n_VAR 1)))
(assert (< 305 (+ n_VAR 1)))
(assert (< 306 (+ n_VAR 1)))
(assert (< 307 (+ n_VAR 1)))
(assert (< 308 (+ n_VAR 1)))
(assert (< 309 (+ n_VAR 1)))
(assert (< 310 (+ n_VAR 1)))
(assert (< 311 (+ n_VAR 1)))
(assert (< 312 (+ n_VAR 1)))
(assert (< 313 (+ n_VAR 1)))
(assert (< 314 (+ n_VAR 1)))
(assert (< 315 (+ n_VAR 1)))
(assert (< 316 (+ n_VAR 1)))
(assert (< 317 (+ n_VAR 1)))
(assert (< 318 (+ n_VAR 1)))
(assert (< 319 (+ n_VAR 1)))
(assert (< 320 (+ n_VAR 1)))
(assert (< 321 (+ n_VAR 1)))
(assert (< 322 (+ n_VAR 1)))
(assert (< 323 (+ n_VAR 1)))
(assert (< 324 (+ n_VAR 1)))
(assert (< 325 (+ n_VAR 1)))
(assert (< 326 (+ n_VAR 1)))
(assert (< 327 (+ n_VAR 1)))
(assert (< 328 (+ n_VAR 1)))
(assert (< 329 (+ n_VAR 1)))
(assert (< 330 (+ n_VAR 1)))
(assert (< 331 (+ n_VAR 1)))
(assert (< 332 (+ n_VAR 1)))
(assert (< 333 (+ n_VAR 1)))
(assert (< 334 (+ n_VAR 1)))
(assert (< 335 (+ n_VAR 1)))
(assert (< 336 (+ n_VAR 1)))
(assert (< 337 (+ n_VAR 1)))
(assert (< 338 (+ n_VAR 1)))
(assert (< 339 (+ n_VAR 1)))
(assert (< 340 (+ n_VAR 1)))
(assert (< 341 (+ n_VAR 1)))
(assert (< 342 (+ n_VAR 1)))
(assert (< 343 (+ n_VAR 1)))
(assert (< 344 (+ n_VAR 1)))
(assert (< 345 (+ n_VAR 1)))
(assert (< 346 (+ n_VAR 1)))
(assert (< 347 (+ n_VAR 1)))
(assert (< 348 (+ n_VAR 1)))
(assert (< 349 (+ n_VAR 1)))
(assert (< 350 (+ n_VAR 1)))
(assert (< 351 (+ n_VAR 1)))
(assert (< 352 (+ n_VAR 1)))
(assert (< 353 (+ n_VAR 1)))
(assert (< 354 (+ n_VAR 1)))
(assert (< 355 (+ n_VAR 1)))
(assert (< 356 (+ n_VAR 1)))
(assert (< 357 (+ n_VAR 1)))
(assert (< 358 (+ n_VAR 1)))
(assert (< 359 (+ n_VAR 1)))
(assert (< 360 (+ n_VAR 1)))
(assert (< 361 (+ n_VAR 1)))
(assert (< 362 (+ n_VAR 1)))
(assert (< 363 (+ n_VAR 1)))
(assert (< 364 (+ n_VAR 1)))
(assert (< 365 (+ n_VAR 1)))
(assert (< 366 (+ n_VAR 1)))
(assert (< 367 (+ n_VAR 1)))
(assert (< 368 (+ n_VAR 1)))
(assert (< 369 (+ n_VAR 1)))
(assert (< 370 (+ n_VAR 1)))
(assert (< 371 (+ n_VAR 1)))
(assert (< 372 (+ n_VAR 1)))
(assert (< 373 (+ n_VAR 1)))
(assert (< 374 (+ n_VAR 1)))
(assert (< 375 (+ n_VAR 1)))
(assert (< 376 (+ n_VAR 1)))
(assert (< 377 (+ n_VAR 1)))
(assert (< 378 (+ n_VAR 1)))
(assert (< 379 (+ n_VAR 1)))
(assert (< 380 (+ n_VAR 1)))
(assert (< 381 (+ n_VAR 1)))
(assert (< 382 (+ n_VAR 1)))
(assert (< 383 (+ n_VAR 1)))
(assert (< 384 (+ n_VAR 1)))
(assert (< 385 (+ n_VAR 1)))
(assert (< 386 (+ n_VAR 1)))
(assert (< 387 (+ n_VAR 1)))
(assert (< 388 (+ n_VAR 1)))
(assert (< 389 (+ n_VAR 1)))
(assert (< 390 (+ n_VAR 1)))
(assert (< 391 (+ n_VAR 1)))
(assert (< 392 (+ n_VAR 1)))
(assert (< 393 (+ n_VAR 1)))
(assert (< 394 (+ n_VAR 1)))
(assert (< 395 (+ n_VAR 1)))
(assert (< 396 (+ n_VAR 1)))
(assert (< 397 (+ n_VAR 1)))
(assert (< 398 (+ n_VAR 1)))
(assert (< 399 (+ n_VAR 1)))
(assert (< 400 (+ n_VAR 1)))
(assert (< 401 (+ n_VAR 1)))
(assert (< 402 (+ n_VAR 1)))
(assert (< 403 (+ n_VAR 1)))
(assert (< 404 (+ n_VAR 1)))
(assert (< 405 (+ n_VAR 1)))
(assert (< 406 (+ n_VAR 1)))
(assert (< 407 (+ n_VAR 1)))
(assert (< 408 (+ n_VAR 1)))
(assert (< 409 (+ n_VAR 1)))
(assert (< 410 (+ n_VAR 1)))
(assert (< 411 (+ n_VAR 1)))
(assert (< 412 (+ n_VAR 1)))
(assert (< 413 (+ n_VAR 1)))
(assert (< 414 (+ n_VAR 1)))
(assert (< 415 (+ n_VAR 1)))
(assert (< 416 (+ n_VAR 1)))
(assert (< 417 (+ n_VAR 1)))
(assert (< 418 (+ n_VAR 1)))
(assert (< 419 (+ n_VAR 1)))
(assert (< 420 (+ n_VAR 1)))
(assert (< 421 (+ n_VAR 1)))
(assert (< 422 (+ n_VAR 1)))
(assert (< 423 (+ n_VAR 1)))
(assert (< 424 (+ n_VAR 1)))
(assert (< 425 (+ n_VAR 1)))
(assert (< 426 (+ n_VAR 1)))
(assert (< 427 (+ n_VAR 1)))
(assert (< 428 (+ n_VAR 1)))
(assert (< 429 (+ n_VAR 1)))
(assert (< 430 (+ n_VAR 1)))
(assert (< 431 (+ n_VAR 1)))
(assert (< 432 (+ n_VAR 1)))
(assert (< 433 (+ n_VAR 1)))
(assert (< 434 (+ n_VAR 1)))
(assert (< 435 (+ n_VAR 1)))
(assert (< 436 (+ n_VAR 1)))
(assert (< 437 (+ n_VAR 1)))
(assert (< 438 (+ n_VAR 1)))
(assert (< 439 (+ n_VAR 1)))
(assert (< 440 (+ n_VAR 1)))
(assert (< 441 (+ n_VAR 1)))
(assert (< 442 (+ n_VAR 1)))
(assert (< 443 (+ n_VAR 1)))
(assert (< 444 (+ n_VAR 1)))
(assert (< 445 (+ n_VAR 1)))
(assert (< 446 (+ n_VAR 1)))
(assert (< 447 (+ n_VAR 1)))
(assert (< 448 (+ n_VAR 1)))
(assert (< 449 (+ n_VAR 1)))
(assert (< 450 (+ n_VAR 1)))
(assert (< 451 (+ n_VAR 1)))
(assert (< 452 (+ n_VAR 1)))
(assert (< 453 (+ n_VAR 1)))
(assert (< 454 (+ n_VAR 1)))
(assert (< 455 (+ n_VAR 1)))
(assert (< 456 (+ n_VAR 1)))
(assert (< 457 (+ n_VAR 1)))
(assert (< 458 (+ n_VAR 1)))
(assert (< 459 (+ n_VAR 1)))
(assert (< 460 (+ n_VAR 1)))
(assert (< 461 (+ n_VAR 1)))
(assert (< 462 (+ n_VAR 1)))
(assert (< 463 (+ n_VAR 1)))
(assert (< 464 (+ n_VAR 1)))
(assert (< 465 (+ n_VAR 1)))
(assert (< 466 (+ n_VAR 1)))
(assert (< 467 (+ n_VAR 1)))
(assert (< 468 (+ n_VAR 1)))
(assert (< 469 (+ n_VAR 1)))
(assert (< 470 (+ n_VAR 1)))
(assert (< 471 (+ n_VAR 1)))
(assert (< 472 (+ n_VAR 1)))
(assert (< 473 (+ n_VAR 1)))
(assert (< 474 (+ n_VAR 1)))
(assert (< 475 (+ n_VAR 1)))
(assert (< 476 (+ n_VAR 1)))
(assert (< 477 (+ n_VAR 1)))
(assert (< 478 (+ n_VAR 1)))
(assert (< 479 (+ n_VAR 1)))
(assert (< 480 (+ n_VAR 1)))
(assert (< 481 (+ n_VAR 1)))
(assert (< 482 (+ n_VAR 1)))
(assert (< 483 (+ n_VAR 1)))
(assert (< 484 (+ n_VAR 1)))
(assert (< 485 (+ n_VAR 1)))
(assert (< 486 (+ n_VAR 1)))
(assert (< 487 (+ n_VAR 1)))
(assert (< 488 (+ n_VAR 1)))
(assert (< 489 (+ n_VAR 1)))
(assert (< 490 (+ n_VAR 1)))
(assert (< 491 (+ n_VAR 1)))
(assert (< 492 (+ n_VAR 1)))
(assert (< 493 (+ n_VAR 1)))
(assert (< 494 (+ n_VAR 1)))
(assert (< 495 (+ n_VAR 1)))
(assert (< 496 (+ n_VAR 1)))
(assert (< 497 (+ n_VAR 1)))
(assert (< 498 (+ n_VAR 1)))
(assert (< 499 (+ n_VAR 1)))
(assert (< 500 (+ n_VAR 1)))
(assert (< 501 (+ n_VAR 1)))
(assert (< 502 (+ n_VAR 1)))
(assert (< 503 (+ n_VAR 1)))
(assert (< 504 (+ n_VAR 1)))
(assert (< 505 (+ n_VAR 1)))
(assert (< 506 (+ n_VAR 1)))
(assert (< 507 (+ n_VAR 1)))
(assert (< 508 (+ n_VAR 1)))
(assert (< 509 (+ n_VAR 1)))
(assert (< 510 (+ n_VAR 1)))
(assert (< 511 (+ n_VAR 1)))
(assert (< 512 (+ n_VAR 1)))
(assert (< 513 (+ n_VAR 1)))
(assert (< 514 (+ n_VAR 1)))
(assert (< 515 (+ n_VAR 1)))
(assert (< 516 (+ n_VAR 1)))
(assert (< 517 (+ n_VAR 1)))
(assert (< 518 (+ n_VAR 1)))
(assert (< 519 (+ n_VAR 1)))
(assert (< 520 (+ n_VAR 1)))
(assert (< 521 (+ n_VAR 1)))
(assert (< 522 (+ n_VAR 1)))
(assert (< 523 (+ n_VAR 1)))
(assert (< 524 (+ n_VAR 1)))
(assert (< 525 (+ n_VAR 1)))
(assert (< 526 (+ n_VAR 1)))
(assert (< 527 (+ n_VAR 1)))
(assert (< 528 (+ n_VAR 1)))
(assert (< 529 (+ n_VAR 1)))
(assert (< 530 (+ n_VAR 1)))
(assert (< 531 (+ n_VAR 1)))
(assert (< 532 (+ n_VAR 1)))
(assert (< 533 (+ n_VAR 1)))
(assert (< 534 (+ n_VAR 1)))
(assert (< 535 (+ n_VAR 1)))
(assert (< 536 (+ n_VAR 1)))
(assert (< 537 (+ n_VAR 1)))
(assert (< 538 (+ n_VAR 1)))
(assert (< 539 (+ n_VAR 1)))
(assert (< 540 (+ n_VAR 1)))
(assert (< 541 (+ n_VAR 1)))
(assert (< 542 (+ n_VAR 1)))
(assert (< 543 (+ n_VAR 1)))
(assert (< 544 (+ n_VAR 1)))
(assert (< 545 (+ n_VAR 1)))
(assert (< 546 (+ n_VAR 1)))
(assert (< 547 (+ n_VAR 1)))
(assert (< 548 (+ n_VAR 1)))
(assert (< 549 (+ n_VAR 1)))
(assert (< 550 (+ n_VAR 1)))
(assert (< 551 (+ n_VAR 1)))
(assert (< 552 (+ n_VAR 1)))
(assert (< 553 (+ n_VAR 1)))
(assert (< 554 (+ n_VAR 1)))
(assert (< 555 (+ n_VAR 1)))
(assert (< 556 (+ n_VAR 1)))
(assert (< 557 (+ n_VAR 1)))
(assert (< 558 (+ n_VAR 1)))
(assert (< 559 (+ n_VAR 1)))
(assert (< 560 (+ n_VAR 1)))
(assert (< 561 (+ n_VAR 1)))
(check-sat)
(get-value (n_VAR))
